p tdp 119 118
78 59
14 78
84 32
115 37
42 112
118 109
92 61
81 56
94 35
73 72
87 112
46 47
102 107
70 71
96 90
26 53
21 22
64 82
30 107
79 65
109 111
82 18
55 15
58 81
119 28
77 4
91 92
79 80
1 3
97 93
60 39
18 7
24 40
53 100
56 27
67 95
31 12
54 91
11 94
70 113
36 26
116 93
43 62
69 56
20 105
89 49
93 83
95 57
29 103
33 10
104 48
99 34
45 68
55 99
30 33
114 96
117 24
80 63
5 50
45 66
32 60
3 52
64 102
86 27
67 97
49 75
13 8
9 16
4 55
75 21
108 37
56 106
119 74
20 51
1 9
105 76
85 60
44 36
46 43
62 85
93 50
6 110
98 113
78 87
96 28
23 22
41 91
108 13
109 44
19 47
66 2
41 105
107 97
89 6
74 11
25 58
4 88
101 56
99 66
72 80
29 24
116 31
85 1
111 72
38 43
110 86
38 7
108 12
17 115
40 23
119 51
109 113
3 104
41 113
102 87
113 102
34 17
68 89
